NAME : dsj1000
COMMENT : Clustered random problem (Johnson)
TYPE : TSP
DIMENSION : 1000
EDGE_WEIGHT_TYPE : CEIL_2D
NODE_COORD_SECTION
 1 981036 508139
 2 534120 -42453
 3 577878 -43732
 4 532890 -96645
 5 205322 215891
 6 225923 197950
 7 69842 667632
 8 391965 1054524
 9 310065 -10714
 10 247401 754523
EOF